c graph colorability of graph:
c random_regular_graph(5, 98).
c
c Generated with `cnfgen`
c (C) 2012-2016 Massimo Lauria <lauria.massimo@gmail.com>
c https://massimolauria.github.io/cnfgen
c
p cnf 294 1127
1 2 3 0
-1 -2 0
-1 -3 0
-2 -3 0
4 5 6 0
-4 -5 0
-4 -6 0
-5 -6 0
7 8 9 0
-7 -8 0
-7 -9 0
-8 -9 0
10 11 12 0
-10 -11 0
-10 -12 0
-11 -12 0
13 14 15 0
-13 -14 0
-13 -15 0
-14 -15 0
16 17 18 0
-16 -17 0
-16 -18 0
-17 -18 0
19 20 21 0
-19 -20 0
-19 -21 0
-20 -21 0
22 23 24 0
-22 -23 0
-22 -24 0
-23 -24 0
25 26 27 0
-25 -26 0
-25 -27 0
-26 -27 0
28 29 30 0
-28 -29 0
-28 -30 0
-29 -30 0
31 32 33 0
-31 -32 0
-31 -33 0
-32 -33 0
34 35 36 0
-34 -35 0
-34 -36 0
-35 -36 0
37 38 39 0
-37 -38 0
-37 -39 0
-38 -39 0
40 41 42 0
-40 -41 0
-40 -42 0
-41 -42 0
43 44 45 0
-43 -44 0
-43 -45 0
-44 -45 0
46 47 48 0
-46 -47 0
-46 -48 0
-47 -48 0
49 50 51 0
-49 -50 0
-49 -51 0
-50 -51 0
52 53 54 0
-52 -53 0
-52 -54 0
-53 -54 0
55 56 57 0
-55 -56 0
-55 -57 0
-56 -57 0
58 59 60 0
-58 -59 0
-58 -60 0
-59 -60 0
61 62 63 0
-61 -62 0
-61 -63 0
-62 -63 0
64 65 66 0
-64 -65 0
-64 -66 0
-65 -66 0
67 68 69 0
-67 -68 0
-67 -69 0
-68 -69 0
70 71 72 0
-70 -71 0
-70 -72 0
-71 -72 0
73 74 75 0
-73 -74 0
-73 -75 0
-74 -75 0
76 77 78 0
-76 -77 0
-76 -78 0
-77 -78 0
79 80 81 0
-79 -80 0
-79 -81 0
-80 -81 0
82 83 84 0
-82 -83 0
-82 -84 0
-83 -84 0
85 86 87 0
-85 -86 0
-85 -87 0
-86 -87 0
88 89 90 0
-88 -89 0
-88 -90 0
-89 -90 0
91 92 93 0
-91 -92 0
-91 -93 0
-92 -93 0
94 95 96 0
-94 -95 0
-94 -96 0
-95 -96 0
97 98 99 0
-97 -98 0
-97 -99 0
-98 -99 0
100 101 102 0
-100 -101 0
-100 -102 0
-101 -102 0
103 104 105 0
-103 -104 0
-103 -105 0
-104 -105 0
106 107 108 0
-106 -107 0
-106 -108 0
-107 -108 0
109 110 111 0
-109 -110 0
-109 -111 0
-110 -111 0
112 113 114 0
-112 -113 0
-112 -114 0
-113 -114 0
115 116 117 0
-115 -116 0
-115 -117 0
-116 -117 0
118 119 120 0
-118 -119 0
-118 -120 0
-119 -120 0
121 122 123 0
-121 -122 0
-121 -123 0
-122 -123 0
124 125 126 0
-124 -125 0
-124 -126 0
-125 -126 0
127 128 129 0
-127 -128 0
-127 -129 0
-128 -129 0
130 131 132 0
-130 -131 0
-130 -132 0
-131 -132 0
133 134 135 0
-133 -134 0
-133 -135 0
-134 -135 0
136 137 138 0
-136 -137 0
-136 -138 0
-137 -138 0
139 140 141 0
-139 -140 0
-139 -141 0
-140 -141 0
142 143 144 0
-142 -143 0
-142 -144 0
-143 -144 0
145 146 147 0
-145 -146 0
-145 -147 0
-146 -147 0
148 149 150 0
-148 -149 0
-148 -150 0
-149 -150 0
151 152 153 0
-151 -152 0
-151 -153 0
-152 -153 0
154 155 156 0
-154 -155 0
-154 -156 0
-155 -156 0
157 158 159 0
-157 -158 0
-157 -159 0
-158 -159 0
160 161 162 0
-160 -161 0
-160 -162 0
-161 -162 0
163 164 165 0
-163 -164 0
-163 -165 0
-164 -165 0
166 167 168 0
-166 -167 0
-166 -168 0
-167 -168 0
169 170 171 0
-169 -170 0
-169 -171 0
-170 -171 0
172 173 174 0
-172 -173 0
-172 -174 0
-173 -174 0
175 176 177 0
-175 -176 0
-175 -177 0
-176 -177 0
178 179 180 0
-178 -179 0
-178 -180 0
-179 -180 0
181 182 183 0
-181 -182 0
-181 -183 0
-182 -183 0
184 185 186 0
-184 -185 0
-184 -186 0
-185 -186 0
187 188 189 0
-187 -188 0
-187 -189 0
-188 -189 0
190 191 192 0
-190 -191 0
-190 -192 0
-191 -192 0
193 194 195 0
-193 -194 0
-193 -195 0
-194 -195 0
196 197 198 0
-196 -197 0
-196 -198 0
-197 -198 0
199 200 201 0
-199 -200 0
-199 -201 0
-200 -201 0
202 203 204 0
-202 -203 0
-202 -204 0
-203 -204 0
205 206 207 0
-205 -206 0
-205 -207 0
-206 -207 0
208 209 210 0
-208 -209 0
-208 -210 0
-209 -210 0
211 212 213 0
-211 -212 0
-211 -213 0
-212 -213 0
214 215 216 0
-214 -215 0
-214 -216 0
-215 -216 0
217 218 219 0
-217 -218 0
-217 -219 0
-218 -219 0
220 221 222 0
-220 -221 0
-220 -222 0
-221 -222 0
223 224 225 0
-223 -224 0
-223 -225 0
-224 -225 0
226 227 228 0
-226 -227 0
-226 -228 0
-227 -228 0
229 230 231 0
-229 -230 0
-229 -231 0
-230 -231 0
232 233 234 0
-232 -233 0
-232 -234 0
-233 -234 0
235 236 237 0
-235 -236 0
-235 -237 0
-236 -237 0
238 239 240 0
-238 -239 0
-238 -240 0
-239 -240 0
241 242 243 0
-241 -242 0
-241 -243 0
-242 -243 0
244 245 246 0
-244 -245 0
-244 -246 0
-245 -246 0
247 248 249 0
-247 -248 0
-247 -249 0
-248 -249 0
250 251 252 0
-250 -251 0
-250 -252 0
-251 -252 0
253 254 255 0
-253 -254 0
-253 -255 0
-254 -255 0
256 257 258 0
-256 -257 0
-256 -258 0
-257 -258 0
259 260 261 0
-259 -260 0
-259 -261 0
-260 -261 0
262 263 264 0
-262 -263 0
-262 -264 0
-263 -264 0
265 266 267 0
-265 -266 0
-265 -267 0
-266 -267 0
268 269 270 0
-268 -269 0
-268 -270 0
-269 -270 0
271 272 273 0
-271 -272 0
-271 -273 0
-272 -273 0
274 275 276 0
-274 -275 0
-274 -276 0
-275 -276 0
277 278 279 0
-277 -278 0
-277 -279 0
-278 -279 0
280 281 282 0
-280 -281 0
-280 -282 0
-281 -282 0
283 284 285 0
-283 -284 0
-283 -285 0
-284 -285 0
286 287 288 0
-286 -287 0
-286 -288 0
-287 -288 0
289 290 291 0
-289 -290 0
-289 -291 0
-290 -291 0
292 293 294 0
-292 -293 0
-292 -294 0
-293 -294 0
-1 -40 0
-2 -41 0
-3 -42 0
-1 -73 0
-2 -74 0
-3 -75 0
-1 -202 0
-2 -203 0
-3 -204 0
-1 -211 0
-2 -212 0
-3 -213 0
-1 -268 0
-2 -269 0
-3 -270 0
-4 -79 0
-5 -80 0
-6 -81 0
-4 -85 0
-5 -86 0
-6 -87 0
-4 -211 0
-5 -212 0
-6 -213 0
-4 -247 0
-5 -248 0
-6 -249 0
-4 -277 0
-5 -278 0
-6 -279 0
-7 -103 0
-8 -104 0
-9 -105 0
-7 -136 0
-8 -137 0
-9 -138 0
-7 -139 0
-8 -140 0
-9 -141 0
-7 -190 0
-8 -191 0
-9 -192 0
-7 -214 0
-8 -215 0
-9 -216 0
-10 -37 0
-11 -38 0
-12 -39 0
-10 -100 0
-11 -101 0
-12 -102 0
-10 -106 0
-11 -107 0
-12 -108 0
-10 -232 0
-11 -233 0
-12 -234 0
-10 -292 0
-11 -293 0
-12 -294 0
-13 -61 0
-14 -62 0
-15 -63 0
-13 -112 0
-14 -113 0
-15 -114 0
-13 -139 0
-14 -140 0
-15 -141 0
-13 -193 0
-14 -194 0
-15 -195 0
-13 -289 0
-14 -290 0
-15 -291 0
-16 -100 0
-17 -101 0
-18 -102 0
-16 -133 0
-17 -134 0
-18 -135 0
-16 -145 0
-17 -146 0
-18 -147 0
-16 -205 0
-17 -206 0
-18 -207 0
-16 -241 0
-17 -242 0
-18 -243 0
-19 -52 0
-20 -53 0
-21 -54 0
-19 -193 0
-20 -194 0
-21 -195 0
-19 -208 0
-20 -209 0
-21 -210 0
-19 -223 0
-20 -224 0
-21 -225 0
-19 -244 0
-20 -245 0
-21 -246 0
-22 -25 0
-23 -26 0
-24 -27 0
-22 -106 0
-23 -107 0
-24 -108 0
-22 -205 0
-23 -206 0
-24 -207 0
-22 -211 0
-23 -212 0
-24 -213 0
-22 -229 0
-23 -230 0
-24 -231 0
-25 -97 0
-26 -98 0
-27 -99 0
-25 -184 0
-26 -185 0
-27 -186 0
-25 -211 0
-26 -212 0
-27 -213 0
-25 -217 0
-26 -218 0
-27 -219 0
-28 -34 0
-29 -35 0
-30 -36 0
-28 -46 0
-29 -47 0
-30 -48 0
-28 -64 0
-29 -65 0
-30 -66 0
-28 -205 0
-29 -206 0
-30 -207 0
-28 -268 0
-29 -269 0
-30 -270 0
-31 -61 0
-32 -62 0
-33 -63 0
-31 -67 0
-32 -68 0
-33 -69 0
-31 -106 0
-32 -107 0
-33 -108 0
-31 -184 0
-32 -185 0
-33 -186 0
-31 -235 0
-32 -236 0
-33 -237 0
-34 -37 0
-35 -38 0
-36 -39 0
-34 -127 0
-35 -128 0
-36 -129 0
-34 -160 0
-35 -161 0
-36 -162 0
-34 -274 0
-35 -275 0
-36 -276 0
-37 -112 0
-38 -113 0
-39 -114 0
-37 -280 0
-38 -281 0
-39 -282 0
-37 -289 0
-38 -290 0
-39 -291 0
-40 -43 0
-41 -44 0
-42 -45 0
-40 -58 0
-41 -59 0
-42 -60 0
-40 -172 0
-41 -173 0
-42 -174 0
-40 -217 0
-41 -218 0
-42 -219 0
-43 -124 0
-44 -125 0
-45 -126 0
-43 -229 0
-44 -230 0
-45 -231 0
-43 -262 0
-44 -263 0
-45 -264 0
-43 -289 0
-44 -290 0
-45 -291 0
-46 -82 0
-47 -83 0
-48 -84 0
-46 -115 0
-47 -116 0
-48 -117 0
-46 -196 0
-47 -197 0
-48 -198 0
-46 -232 0
-47 -233 0
-48 -234 0
-49 -55 0
-50 -56 0
-51 -57 0
-49 -64 0
-50 -65 0
-51 -66 0
-49 -187 0
-50 -188 0
-51 -189 0
-49 -196 0
-50 -197 0
-51 -198 0
-49 -253 0
-50 -254 0
-51 -255 0
-52 -124 0
-53 -125 0
-54 -126 0
-52 -208 0
-53 -209 0
-54 -210 0
-52 -235 0
-53 -236 0
-54 -237 0
-52 -265 0
-53 -266 0
-54 -267 0
-55 -67 0
-56 -68 0
-57 -69 0
-55 -97 0
-56 -98 0
-57 -99 0
-55 -145 0
-56 -146 0
-57 -147 0
-55 -181 0
-56 -182 0
-57 -183 0
-58 -154 0
-59 -155 0
-60 -156 0
-58 -175 0
-59 -176 0
-60 -177 0
-58 -184 0
-59 -185 0
-60 -186 0
-58 -187 0
-59 -188 0
-60 -189 0
-61 -94 0
-62 -95 0
-63 -96 0
-61 -115 0
-62 -116 0
-63 -117 0
-61 -142 0
-62 -143 0
-63 -144 0
-64 -73 0
-65 -74 0
-66 -75 0
-64 -112 0
-65 -113 0
-66 -114 0
-64 -247 0
-65 -248 0
-66 -249 0
-67 -85 0
-68 -86 0
-69 -87 0
-67 -121 0
-68 -122 0
-69 -123 0
-67 -130 0
-68 -131 0
-69 -132 0
-70 -88 0
-71 -89 0
-72 -90 0
-70 -157 0
-71 -158 0
-72 -159 0
-70 -226 0
-71 -227 0
-72 -228 0
-70 -253 0
-71 -254 0
-72 -255 0
-70 -292 0
-71 -293 0
-72 -294 0
-73 -157 0
-74 -158 0
-75 -159 0
-73 -235 0
-74 -236 0
-75 -237 0
-73 -286 0
-74 -287 0
-75 -288 0
-76 -79 0
-77 -80 0
-78 -81 0
-76 -142 0
-77 -143 0
-78 -144 0
-76 -169 0
-77 -170 0
-78 -171 0
-76 -244 0
-77 -245 0
-78 -246 0
-76 -256 0
-77 -257 0
-78 -258 0
-79 -85 0
-80 -86 0
-81 -87 0
-79 -166 0
-80 -167 0
-81 -168 0
-79 -238 0
-80 -239 0
-81 -240 0
-82 -88 0
-83 -89 0
-84 -90 0
-82 -238 0
-83 -239 0
-84 -240 0
-82 -271 0
-83 -272 0
-84 -273 0
-82 -283 0
-83 -284 0
-84 -285 0
-85 -130 0
-86 -131 0
-87 -132 0
-85 -241 0
-86 -242 0
-87 -243 0
-88 -157 0
-89 -158 0
-90 -159 0
-88 -253 0
-89 -254 0
-90 -255 0
-88 -271 0
-89 -272 0
-90 -273 0
-91 -106 0
-92 -107 0
-93 -108 0
-91 -178 0
-92 -179 0
-93 -180 0
-91 -193 0
-92 -194 0
-93 -195 0
-91 -199 0
-92 -200 0
-93 -201 0
-91 -292 0
-92 -293 0
-93 -294 0
-94 -121 0
-95 -122 0
-96 -123 0
-94 -130 0
-95 -131 0
-96 -132 0
-94 -190 0
-95 -191 0
-96 -192 0
-94 -223 0
-95 -224 0
-96 -225 0
-97 -133 0
-98 -134 0
-99 -135 0
-97 -172 0
-98 -173 0
-99 -174 0
-97 -202 0
-98 -203 0
-99 -204 0
-100 -136 0
-101 -137 0
-102 -138 0
-100 -172 0
-101 -173 0
-102 -174 0
-100 -256 0
-101 -257 0
-102 -258 0
-103 -133 0
-104 -134 0
-105 -135 0
-103 -154 0
-104 -155 0
-105 -156 0
-103 -175 0
-104 -176 0
-105 -177 0
-103 -199 0
-104 -200 0
-105 -201 0
-106 -259 0
-107 -260 0
-108 -261 0
-109 -118 0
-110 -119 0
-111 -120 0
-109 -220 0
-110 -221 0
-111 -222 0
-109 -226 0
-110 -227 0
-111 -228 0
-109 -277 0
-110 -278 0
-111 -279 0
-109 -292 0
-110 -293 0
-111 -294 0
-112 -142 0
-113 -143 0
-114 -144 0
-112 -241 0
-113 -242 0
-114 -243 0
-115 -187 0
-116 -188 0
-117 -189 0
-115 -190 0
-116 -191 0
-117 -192 0
-115 -265 0
-116 -266 0
-117 -267 0
-118 -169 0
-119 -170 0
-120 -171 0
-118 -181 0
-119 -182 0
-120 -183 0
-118 -256 0
-119 -257 0
-120 -258 0
-118 -268 0
-119 -269 0
-120 -270 0
-121 -178 0
-122 -179 0
-123 -180 0
-121 -262 0
-122 -263 0
-123 -264 0
-121 -277 0
-122 -278 0
-123 -279 0
-124 -136 0
-125 -137 0
-126 -138 0
-124 -145 0
-125 -146 0
-126 -147 0
-124 -280 0
-125 -281 0
-126 -282 0
-127 -169 0
-128 -170 0
-129 -171 0
-127 -196 0
-128 -197 0
-129 -198 0
-127 -217 0
-128 -218 0
-129 -219 0
-127 -226 0
-128 -227 0
-129 -228 0
-130 -151 0
-131 -152 0
-132 -153 0
-130 -247 0
-131 -248 0
-132 -249 0
-133 -148 0
-134 -149 0
-135 -150 0
-133 -271 0
-134 -272 0
-135 -273 0
-136 -202 0
-137 -203 0
-138 -204 0
-136 -205 0
-137 -206 0
-138 -207 0
-139 -160 0
-140 -161 0
-141 -162 0
-139 -229 0
-140 -230 0
-141 -231 0
-139 -247 0
-140 -248 0
-141 -249 0
-142 -169 0
-143 -170 0
-144 -171 0
-142 -250 0
-143 -251 0
-144 -252 0
-145 -280 0
-146 -281 0
-147 -282 0
-145 -283 0
-146 -284 0
-147 -285 0
-148 -163 0
-149 -164 0
-150 -165 0
-148 -196 0
-149 -197 0
-150 -198 0
-148 -223 0
-149 -224 0
-150 -225 0
-148 -271 0
-149 -272 0
-150 -273 0
-151 -166 0
-152 -167 0
-153 -168 0
-151 -235 0
-152 -236 0
-153 -237 0
-151 -253 0
-152 -254 0
-153 -255 0
-151 -265 0
-152 -266 0
-153 -267 0
-154 -268 0
-155 -269 0
-156 -270 0
-154 -274 0
-155 -275 0
-156 -276 0
-154 -283 0
-155 -284 0
-156 -285 0
-157 -223 0
-158 -224 0
-159 -225 0
-157 -289 0
-158 -290 0
-159 -291 0
-160 -199 0
-161 -200 0
-162 -201 0
-160 -202 0
-161 -203 0
-162 -204 0
-160 -238 0
-161 -239 0
-162 -240 0
-163 -190 0
-164 -191 0
-165 -192 0
-163 -214 0
-164 -215 0
-165 -216 0
-163 -220 0
-164 -221 0
-165 -222 0
-163 -271 0
-164 -272 0
-165 -273 0
-166 -181 0
-167 -182 0
-168 -183 0
-166 -193 0
-167 -194 0
-168 -195 0
-166 -256 0
-167 -257 0
-168 -258 0
-169 -184 0
-170 -185 0
-171 -186 0
-172 -184 0
-173 -185 0
-174 -186 0
-172 -268 0
-173 -269 0
-174 -270 0
-175 -244 0
-176 -245 0
-177 -246 0
-175 -262 0
-176 -263 0
-177 -264 0
-175 -283 0
-176 -284 0
-177 -285 0
-178 -193 0
-179 -194 0
-180 -195 0
-178 -250 0
-179 -251 0
-180 -252 0
-178 -286 0
-179 -287 0
-180 -288 0
-181 -217 0
-182 -218 0
-183 -219 0
-181 -241 0
-182 -242 0
-183 -243 0
-187 -226 0
-188 -227 0
-189 -228 0
-187 -232 0
-188 -233 0
-189 -234 0
-190 -250 0
-191 -251 0
-192 -252 0
-196 -238 0
-197 -239 0
-198 -240 0
-199 -208 0
-200 -209 0
-201 -210 0
-199 -214 0
-200 -215 0
-201 -216 0
-202 -235 0
-203 -236 0
-204 -237 0
-205 -265 0
-206 -266 0
-207 -267 0
-208 -220 0
-209 -221 0
-210 -222 0
-208 -274 0
-209 -275 0
-210 -276 0
-211 -274 0
-212 -275 0
-213 -276 0
-214 -220 0
-215 -221 0
-216 -222 0
-214 -259 0
-215 -260 0
-216 -261 0
-217 -229 0
-218 -230 0
-219 -231 0
-220 -262 0
-221 -263 0
-222 -264 0
-223 -244 0
-224 -245 0
-225 -246 0
-226 -286 0
-227 -287 0
-228 -288 0
-229 -241 0
-230 -242 0
-231 -243 0
-232 -259 0
-233 -260 0
-234 -261 0
-232 -265 0
-233 -266 0
-234 -267 0
-238 -280 0
-239 -281 0
-240 -282 0
-244 -262 0
-245 -263 0
-246 -264 0
-247 -277 0
-248 -278 0
-249 -279 0
-250 -277 0
-251 -278 0
-252 -279 0
-250 -289 0
-251 -290 0
-252 -291 0
-253 -256 0
-254 -257 0
-255 -258 0
-259 -280 0
-260 -281 0
-261 -282 0
-259 -286 0
-260 -287 0
-261 -288 0
-274 -292 0
-275 -293 0
-276 -294 0
-283 -286 0
-284 -287 0
-285 -288 0
